# Node Net
 40   1
400   1
 20   1
1569   1
1000   2
 16   2
 30   2
1586   2
1081   3
800   3
 35   3
  3   3
 26   4
1240   4
1588   4
1241   4
521   5
  9   5
801   5
 37   6
1582   6
1200   6
401   7
 12   7
960   7
1562   8
961   8
1578   8
1581   9
 14   9
1600  10
441  10
